(set-logic QF_AUFBV)
(declare-fun bvlambda_1_ () (_ BitVec 1))
(declare-fun bvlambda_2_ () (_ BitVec 4))
(declare-fun bvlambda_3_ () (_ BitVec 1))
(declare-fun bvlambda_4_ () (_ BitVec 7))
(declare-fun bvlambda_5_ () (_ BitVec 1))
(declare-fun bvlambda_6_ () (_ BitVec 7))
(declare-fun bvlambda_7_ () (_ BitVec 4))
(declare-fun bvlambda_8_ () (_ BitVec 1))
(declare-fun bvlambda_9_ () (_ BitVec 3))
(declare-fun bvlambda_10_ () (_ BitVec 1))
(declare-fun bvlambda_11_ () (_ BitVec 1))
(declare-fun bvlambda_12_ () (_ BitVec 2))
(declare-fun bvlambda_13_ () (_ BitVec 1))
(declare-fun bvlambda_14_ () (_ BitVec 10))
(declare-fun bvlambda_15_ () (_ BitVec 1))
(declare-fun a49 () (Array (_ BitVec 11) (_ BitVec 16)))
(declare-fun a50 () (Array (_ BitVec 1) (_ BitVec 4)))
(declare-fun a51 () (Array (_ BitVec 13) (_ BitVec 3)))
(assert
(let (($e1 (_ bv0 1)))
(let (($e2 (_ bv1874 11)))
(let (($e3 (_ bv3092 13)))
(let (($e4 (_ bv3790 13)))
(let (($e5 (_ bv14 4)))
(let (($e6 (_ bv0 3)))
(let (($e7 (_ bv0 5)))
(let (($e8 (_ bv56 15)))
(let (($e9 (_ bv6 4)))
(let (($e10 (_ bv0 15)))
(let (($e11 (_ bv28 11)))
(let (($e12 (_ bv2034 11)))
(let (($e13 (_ bv65534 16)))
(let (($e14 (_ bv0 4)))
(let (($e15 (_ bv0 6)))
(let (($e16 (_ bv1092 11)))
(let (($e17 (_ bv0 11)))
(let (($e18 (_ bv0 12)))
(let (($e19 (_ bv0 13)))
(let (($e20 (_ bv2046 11)))
(let (($e21 (_ bv0 9)))
(let (($e22 (_ bv4094 12)))
(let (($e23 (_ bv0 8)))
(let (($e24 (_ bv0 16)))
(let (($e25 (_ bv0 14)))
(let (($e26 (_ bv0 2)))
(let (($e27 (_ bv2 13)))
(let (($e28 (_ bv65362 16)))
(let (($e29 (_ bv0 7)))
(let (($e30 (_ bv65280 16)))
(let (($e31 (_ bv61134 16)))
(let (($e32 (_ bv1104 12)))
(let (($e33 (_ bv28 5)))
(let (($e52 (concat $e15 bvlambda_1_)))
(let (($e53 (concat $e52 bvlambda_2_)))
(let (($e54 (concat bvlambda_5_ bvlambda_6_)))
(let (($e55 (concat $e54 bvlambda_7_)))
(let (($e56 (concat $e55 bvlambda_8_)))
(let (($e57 (concat $e56 bvlambda_9_)))
(let (($e58 (store a49 $e11 $e57)))
(let (($e59 (select $e58 $e53)))
(let (($e60 ((_ extract 15 5) $e59)))
(let (($e61 (store a49 (bvnot $e12) (bvnot $e13))))
(let (($e62 (select $e61 $e60)))
(let (($e63 (ite (= $e13 $e62) #b1 #b0)))
(let (($e64 (store a50 bvlambda_10_ (bvnot $e14))))
(let (($e65 (store $e64 bvlambda_11_ (bvnot $e14))))
(let (($e66 (select $e65 (bvnot $e1))))
(let (($e67 (select a50 bvlambda_15_)))
(let (($e68 (select $e64 (bvnot $e1))))
(let (($e69 (ite (= $e68 $e67) #b1 #b0)))
(let (($e70 (concat $e6 $e69)))
(let (($e71 (bvurem $e70 $e66)))
(let (($e72 ((_ extract 3 3) $e71)))
(let (($e73 (select a50 $e1)))
(let (($e74 (bvadd (bvnot $e5) (bvnot $e73))))
(let (($e75 ((_ extract 3 3) $e73)))
(let (($e76 (ite (= #b1 $e75) $e74 $e73)))
(let (($e77 (bvadd (bvnot $e5) (bvnot $e68))))
(let (($e78 ((_ extract 3 3) $e68)))
(let (($e79 (ite (= #b1 $e78) $e77 $e68)))
(let (($e80 (bvudiv $e79 $e76)))
(let (($e81 (bvadd (bvnot $e5) (bvnot $e80))))
(let (($e82 (bvand $e75 $e78)))
(let (($e83 (bvand (bvnot $e75) (bvnot $e78))))
(let (($e84 (bvand (bvnot $e83) (bvnot $e82))))
(let (($e85 (ite (= #b1 $e84) $e81 $e80)))
(let (($e86 ((_ extract 3 3) $e85)))
(let (($e87 (ite (= $e86 $e72) #b1 #b0)))
(let (($e88 ((_ extract 2 0) $e71)))
(let (($e89 ((_ extract 2 0) $e85)))
(let (($e90 (ite (bvult $e89 $e88) #b1 #b0)))
(let (($e91 (bvand $e90 $e87)))
(let (($e92 (bvand $e86 (bvnot $e72))))
(let (($e93 (bvand (bvnot $e92) (bvnot $e91))))
(let (($e94 (bvand (bvnot $e93) (bvnot $e63))))
(let (($e95 (concat $e6 bvlambda_1_)))
(let (($e96 (concat $e95 bvlambda_2_)))
(let (($e97 (concat (bvnot $e6) bvlambda_1_)))
(let (($e98 (concat $e97 bvlambda_2_)))
(let (($e99 (ite (= #b1 bvlambda_1_) $e98 $e96)))
(let (($e100 ((_ extract 7 7) $e99)))
(let (($e101 (select $e64 $e100)))
(let (($e102 (ite (bvult $e101 $e68) #b1 #b0)))
(let (($e103 (concat (bvnot $e26) (bvnot $e102))))
(let (($e104 (concat $e26 (bvnot $e102))))
(let (($e105 (ite (= #b1 $e102) $e104 $e103)))
(let (($e106 (select a51 $e19)))
(let (($e107 (ite (= $e106 $e105) #b1 #b0)))
(let (($e108 (concat $e7 $e99)))
(let (($e109 (bvand (bvnot $e4) $e108)))
(let (($e110 (bvand $e4 (bvnot $e108))))
(let (($e111 (bvand (bvnot $e110) (bvnot $e109))))
(let (($e112 (bvmul $e27 $e111)))
(let (($e113 ((_ extract 12 12) $e112)))
(let (($e114 (concat bvlambda_6_ bvlambda_7_)))
(let (($e115 (concat $e114 bvlambda_8_)))
(let (($e116 (concat $e115 bvlambda_9_)))
(let (($e117 (ite (bvult $e116 $e8) #b1 #b0)))
(let (($e118 (concat $e21 (bvnot $e117))))
(let (($e119 (concat $e21 (bvnot bvlambda_5_))))
(let (($e120 (bvand $e119 $e118)))
(let (($e121 (concat $e6 bvlambda_3_)))
(let (($e122 (concat $e121 bvlambda_4_)))
(let (($e123 (concat (bvnot $e6) bvlambda_3_)))
(let (($e124 (concat $e123 bvlambda_4_)))
(let (($e125 (ite (= #b1 bvlambda_3_) $e124 $e122)))
(let (($e126 (bvand $e2 $e125)))
(let (($e127 (bvand (bvnot $e2) (bvnot $e125))))
(let (($e128 (bvand (bvnot $e127) (bvnot $e126))))
(let (($e129 ((_ extract 9 0) $e128)))
(let (($e130 (ite (bvult (bvnot $e129) $e120) #b1 #b0)))
(let (($e131 ((_ extract 10 10) $e128)))
(let (($e132 (bvand $e131 (bvnot $e130))))
(let (($e133 (concat $e10 $e132)))
(let (($e134 (concat (bvnot $e10) $e132)))
(let (($e135 (ite (= #b1 $e132) $e134 $e133)))
(let (($e136 ((_ extract 15 15) $e135)))
(let (($e137 (ite (= bvlambda_5_ $e136) #b1 #b0)))
(let (($e138 ((_ extract 14 0) $e135)))
(let (($e139 (ite (bvult $e116 $e138) #b1 #b0)))
(let (($e140 (bvand $e139 $e137)))
(let (($e141 (bvand bvlambda_5_ (bvnot $e136))))
(let (($e142 (bvand (bvnot $e141) (bvnot $e140))))
(let (($e143 (bvand (bvnot $e142) $e113)))
(let (($e144 (concat bvlambda_13_ bvlambda_14_)))
(let (($e145 (concat $e144 bvlambda_15_)))
(let (($e146 (bvadd (bvnot $e22) (bvnot $e145))))
(let (($e147 (concat $e14 $e99)))
(let (($e148 (bvadd $e147 $e146)))
(let (($e149 (select $e64 $e1)))
(let (($e150 (concat $e23 $e149)))
(let (($e151 (bvurem $e150 $e148)))
(let (($e152 ((_ extract 11 11) $e151)))
(let (($e153 (ite (= bvlambda_13_ $e152) #b1 #b0)))
(let (($e154 (concat bvlambda_14_ bvlambda_15_)))
(let (($e155 ((_ extract 10 0) $e151)))
(let (($e156 (ite (bvult $e155 $e154) #b1 #b0)))
(let (($e157 (bvand $e156 $e153)))
(let (($e158 (bvand (bvnot bvlambda_13_) $e152)))
(let (($e159 (bvand (bvnot $e158) (bvnot $e157))))
(let (($e160 (bvand $e142 $e159)))
(let (($e161 (bvand (bvnot $e160) (bvnot $e143))))
(let (($e162 (bvand (bvnot $e161) (bvnot $e107))))
(let (($e163 (ite (= $e29 bvlambda_4_) #b1 #b0)))
(let (($e164 (bvand (bvnot bvlambda_3_) $e163)))
(let (($e165 (bvand $e164 (bvnot $e69))))
(let (($e166 (bvand (bvnot $e165) $e161)))
(let (($e167 (bvand (bvnot $e166) (bvnot $e162))))
(let (($e168 (bvand (bvnot $e167) $e94)))
(let (($e169 (select a49 (bvnot $e16))))
(let (($e170 (bvadd (bvnot $e13) (bvnot $e169))))
(let (($e171 ((_ extract 15 15) $e169)))
(let (($e172 (ite (= #b1 $e171) $e170 $e169)))
(let (($e173 (concat $e18 $e68)))
(let (($e174 (concat (bvnot $e18) $e68)))
(let (($e175 (ite (= #b1 $e78) $e174 $e173)))
(let (($e176 (bvadd (bvnot $e13) (bvnot $e175))))
(let (($e177 ((_ extract 15 15) $e175)))
(let (($e178 (ite (= #b1 $e177) $e176 $e175)))
(let (($e179 (bvurem $e178 $e172)))
(let (($e180 (bvadd (bvnot $e13) (bvnot $e179))))
(let (($e181 (ite (= #b1 $e177) $e180 $e179)))
(let (($e182 (ite (bvult (bvnot $e31) $e181) #b1 #b0)))
(let (($e183 (ite (= $e182 $e168) #b1 #b0)))
(let (($e184 ((_ extract 15 15) $e59)))
(let (($e185 (select a49 $e17)))
(let (($e186 ((_ extract 15 15) $e185)))
(let (($e187 (ite (= $e186 $e184) #b1 #b0)))
(let (($e188 ((_ extract 14 0) $e185)))
(let (($e189 ((_ extract 14 0) $e59)))
(let (($e190 (ite (bvult $e189 $e188) #b1 #b0)))
(let (($e191 (bvand $e190 $e187)))
(let (($e192 (bvand (bvnot $e186) $e184)))
(let (($e193 (bvand (bvnot $e192) (bvnot $e191))))
(let (($e194 ((_ extract 2 2) $e185)))
(let (($e195 (store $e65 (bvnot $e1) $e5)))
(let (($e196 (store $e195 $e194 bvlambda_7_)))
(let (($e197 (select $e196 (bvnot $e1))))
(let (($e198 (ite (= $e73 $e197) #b1 #b0)))
(let (($e199 (concat $e25 $e198)))
(let (($e200 (concat bvlambda_11_ bvlambda_12_)))
(let (($e201 (concat $e200 bvlambda_10_)))
(let (($e202 (concat $e201 bvlambda_11_)))
(let (($e203 (concat $e202 bvlambda_12_)))
(let (($e204 (concat $e203 bvlambda_10_)))
(let (($e205 (concat $e204 bvlambda_11_)))
(let (($e206 (concat $e205 bvlambda_12_)))
(let (($e207 (concat $e206 bvlambda_10_)))
(let (($e208 (concat $e207 bvlambda_11_)))
(let (($e209 (concat $e208 bvlambda_12_)))
(let (($e210 (ite (bvult $e209 $e199) #b1 #b0)))
(let (($e211 (bvand (bvnot bvlambda_10_) (bvnot $e210))))
(let (($e212 (bvand $e211 $e193)))
(let (($e213 (bvand (bvnot $e211) (bvnot $e193))))
(let (($e214 (bvand (bvnot $e213) (bvnot $e212))))
(let (($e215 (bvand (bvnot $e193) (bvnot $e214))))
(let (($e216 (bvand (bvnot $e198) $e211)))
(let (($e217 (bvand (bvnot $e216) (bvnot $e215))))
(let (($e218 ((_ extract 2 0) $e99)))
(let (($e219 (select $e64 bvlambda_8_)))
(let (($e220 ((_ extract 2 0) $e219)))
(let (($e221 (ite (= $e106 $e220) #b1 #b0)))
(let (($e222 ((_ extract 3 3) $e219)))
(let (($e223 ((_ extract 2 2) $e106)))
(let (($e224 (ite (= $e223 $e222) #b1 #b0)))
(let (($e225 (bvand $e224 $e221)))
(let (($e226 (concat $e10 $e225)))
(let (($e227 (concat (bvnot $e10) $e225)))
(let (($e228 (ite (= #b1 $e225) $e227 $e226)))
(let (($e229 (select a49 (bvnot $e20))))
(let (($e230 (ite (= $e229 $e228) #b1 #b0)))
(let (($e231 (concat $e29 $e230)))
(let (($e232 (bvlshr $e231  ((_ zero_extend 5) $e218))))
(let (($e233 (concat $e23 $e232)))
(let (($e234 ((_ extract 7 3) $e99)))
(let (($e235 (ite (= $e7 $e234) #b1 #b0)))
(let (($e236 (ite (= #b1 $e235) $e233 $e24)))
(let (($e237 (concat (bvnot $e23) $e232)))
(let (($e238 (ite (= #b1 $e235) $e237 $e30)))
(let (($e239 ((_ extract 7 7) $e232)))
(let (($e240 (bvand $e235 $e239)))
(let (($e241 (ite (= #b1 $e240) $e238 $e236)))
(let (($e242 ((_ extract 15 15) $e241)))
(let (($e243 (ite (= bvlambda_5_ $e242) #b1 #b0)))
(let (($e244 ((_ extract 14 0) $e241)))
(let (($e245 (ite (bvult $e244 $e116) #b1 #b0)))
(let (($e246 (bvand $e245 $e243)))
(let (($e247 (bvand (bvnot bvlambda_5_) $e242)))
(let (($e248 (bvand (bvnot $e247) (bvnot $e246))))
(let (($e249 (select a49 (bvnot $e17))))
(let (($e250 ((_ extract 12 2) $e249)))
(let (($e251 (select $e58 $e250)))
(let (($e252 (ite (= $e28 $e251) #b1 #b0)))
(let (($e253 (concat $e10 $e252)))
(let (($e254 (ite (bvult $e59 $e253) #b1 #b0)))
(let (($e255 (bvand (bvnot $e254) (bvnot $e248))))
(let (($e256 (bvand $e254 $e248)))
(let (($e257 (bvand (bvnot $e256) (bvnot $e255))))
(let (($e258 (bvand $e257 $e217)))
(let (($e259 (concat $e6 (bvnot $e210))))
(let (($e260 (concat $e6 (bvnot bvlambda_10_))))
(let (($e261 (bvand $e260 $e259)))
(let (($e262 (concat (bvnot $e6) (bvnot $e210))))
(let (($e263 (concat (bvnot $e6) (bvnot bvlambda_10_))))
(let (($e264 (bvand $e263 $e262)))
(let (($e265 (ite (= #b1 $e211) $e264 $e261)))
(let (($e266 (ite (bvult $e9 $e265) #b1 #b0)))
(let (($e267 ((_ extract 12 10) $e249)))
(let (($e268 (ite (= $e106 $e267) #b1 #b0)))
(let (($e269 ((_ extract 15 10) $e249)))
(let (($e270 ((_ extract 9 0) $e249)))
(let (($e271 (concat $e270 $e269)))
(let (($e272 ((_ extract 15 3) $e271)))
(let (($e273 (ite (= $e19 $e272) #b1 #b0)))
(let (($e274 (bvand $e273 $e268)))
(let (($e275 (bvand (bvnot $e274) (bvnot $e266))))
(let (($e276 (concat $e29 $e99)))
(let (($e277 (concat (bvnot $e29) $e99)))
(let (($e278 (ite (= #b1 $e100) $e277 $e276)))
(let (($e279 ((_ extract 14 14) $e278)))
(let (($e280 (concat $e26 $e101)))
(let (($e281 (concat (bvnot $e26) $e101)))
(let (($e282 ((_ extract 3 3) $e101)))
(let (($e283 (ite (= #b1 $e282) $e281 $e280)))
(let (($e284 ((_ extract 4 0) $e283)))
(let (($e285 (ite (bvult $e33 $e284) #b1 #b0)))
(let (($e286 ((_ extract 5 5) $e283)))
(let (($e287 (bvand (bvnot $e286) $e285)))
(let (($e288 (ite (= $e287 $e279) #b1 #b0)))
(let (($e289 (concat $e21 $e197)))
(let (($e290 (concat (bvnot $e21) $e197)))
(let (($e291 ((_ extract 3 3) $e197)))
(let (($e292 (ite (= #b1 $e291) $e290 $e289)))
(let (($e293 ((_ extract 11 0) $e292)))
(let (($e294 (bvand $e32 (bvnot $e293))))
(let (($e295 (concat $e7 bvlambda_3_)))
(let (($e296 (concat $e295 bvlambda_4_)))
(let (($e297 (concat (bvnot $e7) bvlambda_3_)))
(let (($e298 (concat $e297 bvlambda_4_)))
(let (($e299 (ite (= #b1 bvlambda_3_) $e298 $e296)))
(let (($e300 (ite (bvult $e3 $e299) #b1 #b0)))
(let (($e301 (concat $e6 $e300)))
(let (($e302 (concat (bvnot $e6) $e300)))
(let (($e303 (ite (= #b1 $e300) $e302 $e301)))
(let (($e304 ((_ extract 13 13) $e169)))
(let (($e305 (select a50 $e304)))
(let (($e306 (bvand $e305 $e303)))
(let (($e307 (bvand (bvnot $e305) (bvnot $e303))))
(let (($e308 (bvand (bvnot $e307) (bvnot $e306))))
(let (($e309 (concat $e23 (bvnot $e308))))
(let (($e310 (ite (bvult $e309 (bvnot $e294)) #b1 #b0)))
(let (($e311 ((_ extract 12 12) $e292)))
(let (($e312 (bvand (bvnot $e311) $e310)))
(let (($e313 (ite (= $e312 $e288) #b1 #b0)))
(let (($e314 (concat (bvnot $e18) (bvnot $e308))))
(let (($e315 (concat $e18 (bvnot $e308))))
(let (($e316 ((_ extract 3 3) $e308)))
(let (($e317 (ite (= #b1 $e316) $e315 $e314)))
(let (($e318 (ite (bvult $e317 $e229) #b1 #b0)))
(let (($e319 (bvand $e318 $e313)))
(let (($e320 (bvand (bvnot $e318) (bvnot $e313))))
(let (($e321 (bvand (bvnot $e320) (bvnot $e319))))
(let (($e322 (bvand $e321 $e275)))
(let (($e323 (bvand (bvnot $e321) (bvnot $e275))))
(let (($e324 (bvand (bvnot $e323) (bvnot $e322))))
(let (($e325 (select a50 (bvnot $e1))))
(let (($e326 ((_ extract 3 3) $e325)))
(let (($e327 (select $e65 $e326)))
(let (($e328 (concat $e18 $e327)))
(let (($e329 (concat (bvnot $e18) $e327)))
(let (($e330 ((_ extract 3 3) $e327)))
(let (($e331 (ite (= #b1 $e330) $e329 $e328)))
(let (($e332 (ite (bvult $e62 $e331) #b1 #b0)))
(let (($e333 (concat $e21 $e332)))
(let (($e334 (ite (bvult $e333 (bvnot $e129)) #b1 #b0)))
(let (($e335 (bvand $e131 $e334)))
(let (($e336 (bvand $e335 (bvnot $e324))))
(let (($e337 (bvand (bvnot $e59) (bvnot $e251))))
(let (($e338 (ite (= (bvnot $e13) $e337) #b1 #b0)))
(let (($e339 (bvand (bvnot $e338) (bvnot $e336))))
(let (($e340 (bvand $e338 $e336)))
(let (($e341 (bvand (bvnot $e340) (bvnot $e339))))
(let (($e342 (bvand (bvnot $e341) $e258)))
(let (($e343 (bvand (bvnot $e342) $e183)))
(let (($e344 (ite (= $e18 $e151) #b1 #b0)))
(let (($e345 (ite (= $e18 $e148) #b1 #b0)))
(let (($e346 (concat $e6 $e225)))
(let (($e347 (bvadd (bvnot $e5) (bvnot $e346))))
(let (($e348 (concat bvlambda_10_ bvlambda_11_)))
(let (($e349 (concat $e348 bvlambda_12_)))
(let (($e350 (bvand (bvnot $e5) $e349)))
(let (($e351 (bvand $e5 (bvnot $e349))))
(let (($e352 (bvand (bvnot $e351) (bvnot $e350))))
(let (($e353 (bvadd (bvnot $e352) $e347)))
(let (($e354 (ite (= $e14 $e353) #b1 #b0)))
(let (($e355 (ite (= (bvnot $e14) $e353) #b1 #b0)))
(let (($e356 (ite (= $e14 $e66) #b1 #b0)))
(let (($e357 (bvand (bvnot $e13) $e181)))
(let (($e358 (ite (= $e24 $e357) #b1 #b0)))
(let (($e359 (ite (= $e24 $e181) #b1 #b0)))
(let (($e360 (ite (= $e14 bvlambda_2_) #b1 #b0)))
(let (($e361 (bvand (bvnot bvlambda_1_) $e360)))
(let (($e362 (ite (= (bvnot $e14) bvlambda_2_) #b1 #b0)))
(let (($e363 (bvand bvlambda_1_ $e362)))
(let (($e364 (ite (= $e169 $e24) #b1 #b0)))
(let (($e365 (ite (= $e169 (bvnot $e24)) #b1 #b0)))
(let (($e366 (ite (= $e14 $e73) #b1 #b0)))
(let (($e367 (ite (= (bvnot $e14) $e73) #b1 #b0)))
(let (($e368 (bvand (bvnot $e367) (bvnot $e366))))
(let (($e369 (bvand $e368 (bvnot $e365))))
(let (($e370 (bvand $e369 (bvnot $e364))))
(let (($e371 (bvand $e370 (bvnot $e363))))
(let (($e372 (bvand $e371 (bvnot $e361))))
(let (($e373 (bvand $e372 (bvnot $e359))))
(let (($e374 (bvand $e373 (bvnot $e358))))
(let (($e375 (bvand $e374 (bvnot $e356))))
(let (($e376 (bvand $e375 (bvnot $e355))))
(let (($e377 (bvand $e376 (bvnot $e354))))
(let (($e378 (bvand $e377 (bvnot $e345))))
(let (($e379 (bvand $e378 (bvnot $e344))))
(let (($e380 (bvand $e379 (bvnot $e343))))
 (not (= $e380 #b0)))))))))))))))))))))))))))))))))))))))))))))))))))))))))))))))))))))))))))))))))))))))))))))))))))))))))))))))))))))))))))))))))))))))))))))))))))))))))))))))))))))))))))))))))))))))))))))))))))))))))))))))))))))))))))))))))))))))))))))))))))))))))))))))))))))))))))))))))))))))))))))))))))))))))))))))))))))))))))))))))))))))))))))))))))))))))))))))))))))))))))))
(check-sat)
(exit)
